Read MPS format model from file dat/rmp/DER_96_16384_40.mps
Reading time = 3.01 seconds
: 16480 rows, 98592 columns, 8549807 nonzeros
Gurobi Optimizer version 9.0.0 build v9.0.0rc2 (linux64)
Optimize a model with 16480 rows, 98592 columns and 8549807 nonzeros
Model fingerprint: 0x1a915c30
Coefficient statistics:
  Matrix range     [3e-05, 1e+01]
  Objective range  [8e-01, 1e+03]
  Bounds range     [1e+05, 1e+05]
  RHS range        [1e+00, 1e+00]
Ordering time: 0.05s

Barrier statistics:
 AA' NZ     : 1.488e+06
 Factor NZ  : 1.666e+06 (roughly 60 MBytes of memory)
 Factor Ops : 1.743e+08 (less than 1 second per iteration)
 Threads    : 1

                  Objective                Residual
Iter       Primal          Dual         Primal    Dual     Compl     Time
   0   4.70638880e+09 -4.18409026e+08  9.91e+07 2.08e-02  8.71e+05     2s
   1   6.66642078e+07 -5.68870011e+07  1.25e+06 3.64e-12  1.16e+04     3s
   2   6.84406552e+06 -1.58738978e+07  1.24e+05 3.64e-12  1.28e+03     3s
   3   2.01574549e+05 -9.27778371e+06  1.46e+03 3.64e-12  1.07e+02     4s
   4   1.14668433e+05 -1.67316098e+06  6.19e-01 3.64e-12  1.81e+01     4s
   5   1.14477480e+05  4.34816516e+04  5.83e-10 3.64e-12  7.19e-01     5s
   6   1.14054502e+05  1.04776622e+05  3.82e-10 2.73e-12  9.40e-02     6s
   7   1.13400633e+05  1.10300487e+05  4.51e-10 2.73e-12  3.14e-02     7s
   8   1.13030179e+05  1.11753258e+05  6.50e-10 3.64e-12  1.29e-02     7s
   9   1.12751081e+05  1.12193211e+05  7.17e-10 1.82e-12  5.65e-03     8s
  10   1.12610431e+05  1.12296951e+05  2.32e-09 1.82e-12  3.18e-03     9s
  11   1.12526373e+05  1.12345464e+05  5.29e-09 1.82e-12  1.83e-03     9s
  12   1.12472740e+05  1.12409991e+05  2.98e-09 1.82e-12  6.36e-04    10s
  13   1.12452456e+05  1.12424899e+05  4.57e-09 3.64e-12  2.79e-04    11s
  14   1.12444352e+05  1.12430943e+05  5.52e-09 1.82e-12  1.36e-04    12s
  15   1.12442083e+05  1.12434647e+05  6.12e-09 1.82e-12  7.53e-05    13s
  16   1.12440681e+05  1.12435966e+05  1.17e-08 1.82e-12  4.78e-05    13s
  17   1.12439627e+05  1.12437357e+05  1.99e-08 3.64e-12  2.30e-05    14s
  18   1.12439116e+05  1.12438003e+05  2.04e-08 3.64e-12  1.13e-05    15s
  19   1.12438879e+05  1.12438117e+05  2.63e-08 3.64e-12  7.72e-06    15s
  20   1.12438665e+05  1.12438419e+05  2.99e-08 3.64e-12  2.50e-06    16s
  21   1.12438609e+05  1.12438482e+05  5.76e-08 1.82e-12  1.29e-06    17s
  22   1.12438568e+05  1.12438506e+05  8.17e-08 1.82e-12  6.29e-07    17s
  23   1.12438547e+05  1.12438520e+05  3.53e-07 3.64e-12  2.75e-07    18s
  24   1.12438527e+05  1.12438525e+05  1.28e-06 3.64e-12  1.11e-08    19s
  25   1.12438526e+05  1.12438526e+05  1.22e-05 3.64e-12  2.11e-09    19s
  26   1.12438526e+05  1.12438526e+05  1.06e-05 3.64e-12  1.76e-10    20s
  27   1.12438526e+05  1.12438526e+05  1.19e-06 3.64e-12  3.40e-12    21s
  28   1.12438526e+05  1.12438526e+05  1.12e-07 3.64e-12  8.57e-14    22s

Barrier solved model in 28 iterations and 21.78 seconds
Optimal objective 1.12438526e+05

Solve time: 21.791326907
Barrier iterations: 28
